
50
152341

4148 5148
2878 3878
8448 9448
4438 5438
5288 6288
5513 6513
3390 4390
6395 7395
9001 10001
720 1720
5610 6610
2641 3641
6557 7557
6234 7234
458 1458
1130 2130
5284 6284
8587 9587
7977 8977
8239 9239
1371 2371
3506 4506
5770 6770
3665 4665
2307 3307
9221 10221
6353 7353
3981 4981
4761 5761
6996 7996
7593 8593
7796 8796
3345 4345
9677 10677
7631 8631
2706 3706
1720 2720
4302 5302
2606 3606
8776 9776
94 1094
8180 9180
1619 2619
8119 9119
4328 5328
1318 2318
9854 10854
4190 5190
9784 10784
3225 4225
